c Satisfiable example
c Extracted from jerusa and gb paper
c page 20 (3??)
p cnf 14 10
-14 12 -13 0
10 -12 -13 0
10 -13 11 0
-10 -12 13 0
-12 -13 -11 0
-13 12 -11 0
-12 -11 10 0
14 10 12 0
-11 14 13 0
-13 -11 -14 0